# Objective value = 4.1713354961886644e+01
x[0,1,1] 0
x[0,2,1] 0
x[0,3,1] 0
x[0,4,1] 1
x[0,5,1] 0
x[0,6,1] 0
x[1,2,1] 0
x[1,3,1] 0
x[1,4,1] 0
x[1,5,1] 0
x[1,6,1] 1
x[2,1,1] 0
x[2,3,1] 1
x[2,4,1] 0
x[2,5,1] 0
x[2,6,1] 0
x[3,1,1] 1
x[3,2,1] 0
x[3,4,1] 0
x[3,5,1] 0
x[3,6,1] 0
x[4,1,1] 0
x[4,2,1] 0
x[4,3,1] 0
x[4,5,1] 1
x[4,6,1] 0
x[5,1,1] 0
x[5,2,1] 1
x[5,3,1] 0
x[5,4,1] 0
x[5,6,1] 0
t[1] 3.3251152908661666e+01
t[2] 1.9361342587306538e+01
t[3] 2.6688705549309994e+01
t[4] 9
t[5] 1.4820929129591605e+01
